c Reduced graph for R50_1g_1 generated by Cyril Grelier
p edge 46 102
e 1 4
e 1 8
e 1 16
e 1 17
e 1 27
e 1 28
e 1 30
e 1 43
e 2 5
e 2 13
e 2 15
e 2 21
e 2 22
e 2 30
e 2 31
e 2 33
e 3 11
e 3 19
e 3 21
e 3 22
e 3 25
e 3 39
e 3 41
e 4 5
e 4 12
e 4 14
e 4 31
e 4 32
e 4 38
e 5 25
e 5 26
e 5 31
e 5 32
e 5 33
e 6 7
e 6 8
e 6 9
e 6 10
e 6 29
e 6 40
e 6 41
e 7 14
e 7 24
e 7 25
e 7 29
e 7 43
e 8 11
e 8 25
e 8 33
e 8 35
e 9 14
e 9 19
e 9 26
e 9 27
e 9 42
e 10 16
e 10 23
e 10 26
e 10 28
e 10 44
e 11 12
e 11 15
e 11 31
e 12 16
e 12 22
e 12 38
e 13 24
e 13 34
e 13 35
e 13 46
e 14 16
e 14 19
e 15 17
e 15 18
e 15 27
e 16 23
e 17 24
e 17 27
e 17 38
e 18 22
e 18 26
e 18 30
e 18 42
e 19 20
e 20 29
e 20 37
e 20 39
e 21 41
e 21 45
e 23 39
e 23 45
e 24 34
e 28 36
e 28 46
e 29 40
e 30 34
e 32 36
e 32 40
e 33 37
e 34 36
e 35 37
e 42 44
